\ENCODING=ISO-8859-1
\Problem name: 

Minimize
 obj: 0.026 i_0_0_0 + 0.0248 i_1_0_0 + 0.0048 i_2_0_0 + 0.002 i_3_0_0
      + 0.0036 i_4_0_0 + 0.026 i_5_0_0 + 0.0508 i_6_0_0 + 0.0248 i_7_0_0
      + 0.0234 i_0_1_0 + 0.02232 i_1_1_0 + 0.00432 i_2_1_0 + 0.0018 i_3_1_0
      + 0.00324 i_4_1_0 + 0.0234 i_5_1_0 + 0.04572 i_6_1_0 + 0.02232 i_7_1_0
      + 0.02106 i_0_2_0 + 0.020088 i_1_2_0 + 0.003888 i_2_2_0 + 0.00162 i_3_2_0
      + 0.002916 i_4_2_0 + 0.02106 i_5_2_0 + 0.041148 i_6_2_0
      + 0.020088 i_7_2_0 + 0.018954 i_0_3_0 + 0.0180792 i_1_3_0
      + 0.0034992 i_2_3_0 + 0.001458 i_3_3_0 + 0.0026244 i_4_3_0
      + 0.018954 i_5_3_0 + 0.0370332 i_6_3_0 + 0.0180792 i_7_3_0
      + 0.0170586 i_0_4_0 + 0.01627128 i_1_4_0 + 0.00314928 i_2_4_0
      + 0.0013122 i_3_4_0 + 0.00236196 i_4_4_0 + 0.0170586 i_5_4_0
      + 0.03332988 i_6_4_0 + 0.01627128 i_7_4_0 + 0.01535274 i_0_5_0
      + 0.014644152 i_1_5_0 + 0.002834352 i_2_5_0 + 0.00118098 i_3_5_0
      + 0.002125764 i_4_5_0 + 0.01535274 i_5_5_0 + 0.029996892 i_6_5_0
      + 0.014644152 i_7_5_0 + 67.54 p_0_0_0 + 26.25 p_1_0_0 + 73.92 p_2_0_0
      + 69.72 p_3_0_0 + 93.31 p_4_0_0 + 56.22 p_5_0_0 + 7.89 p_6_0_0
      + 12.16 p_7_0_0 + 60.786 p_0_1_0 + 23.625 p_1_1_0 + 66.528 p_2_1_0
      + 62.748 p_3_1_0 + 83.979 p_4_1_0 + 50.598 p_5_1_0 + 7.101 p_6_1_0
      + 10.944 p_7_1_0 + 54.7074 p_0_2_0 + 21.2625 p_1_2_0 + 59.8752 p_2_2_0
      + 56.4732 p_3_2_0 + 75.5811 p_4_2_0 + 45.5382 p_5_2_0 + 6.3909 p_6_2_0
      + 9.8496 p_7_2_0 + 49.23666 p_0_3_0 + 19.13625 p_1_3_0 + 53.88768 p_2_3_0
      + 50.82588 p_3_3_0 + 68.02299 p_4_3_0 + 40.98438 p_5_3_0
      + 5.75181 p_6_3_0 + 8.86464 p_7_3_0 + 44.312994 p_0_4_0
      + 17.222625 p_1_4_0 + 48.498912 p_2_4_0 + 45.743292 p_3_4_0
      + 61.220691 p_4_4_0 + 36.885942 p_5_4_0 + 5.176629 p_6_4_0
      + 7.978176 p_7_4_0 + 39.8816946 p_0_5_0 + 15.5003625 p_1_5_0
      + 43.6490208 p_2_5_0 + 41.1689628 p_3_5_0 + 55.0986219 p_4_5_0
      + 33.1973478 p_5_5_0 + 4.6589661 p_6_5_0 + 7.1803584 p_7_5_0
      + 0.26 b_5_0_0 + 0.508 b_6_0_0 + 0.248 b_7_0_0 + 0.234 b_5_1_0
      + 0.4572 b_6_1_0 + 0.2232 b_7_1_0 + 0.2106 b_5_2_0 + 0.41148 b_6_2_0
      + 0.20088 b_7_2_0 + 0.18954 b_5_3_0 + 0.370332 b_6_3_0 + 0.180792 b_7_3_0
      + 0.170586 b_5_4_0 + 0.3332988 b_6_4_0 + 0.1627128 b_7_4_0
      + 1.535274 b_5_5_0 + 2.9996892 b_6_5_0 + 1.4644152 b_7_5_0
Subject To
 c1:   - q_p_t_s_5_0_0 - q_p_t_s_6_0_0 - i_0_0_0  = -583
 c2:   q_p_t_s_0_0_0 - q_p_t_s_5_0_0 - q_p_t_s_6_0_0 - q_p_t_s_5_1_0
       - q_p_t_s_6_1_0 - i_0_1_0  = -583
 c3:   q_p_t_s_0_0_0 - q_p_t_s_5_0_0 - q_p_t_s_6_0_0 + q_p_t_s_0_1_0
       - q_p_t_s_5_1_0 - q_p_t_s_6_1_0 - q_p_t_s_5_2_0 - q_p_t_s_6_2_0
       - i_0_2_0  = -583
 c4:   q_p_t_s_0_0_0 - q_p_t_s_5_0_0 - q_p_t_s_6_0_0 + q_p_t_s_0_1_0
       - q_p_t_s_5_1_0 - q_p_t_s_6_1_0 + q_p_t_s_0_2_0 - q_p_t_s_5_2_0
       - q_p_t_s_6_2_0 - q_p_t_s_5_3_0 - q_p_t_s_6_3_0 - i_0_3_0  = -583
 c5:   q_p_t_s_0_0_0 - q_p_t_s_5_0_0 - q_p_t_s_6_0_0 + q_p_t_s_0_1_0
       - q_p_t_s_5_1_0 - q_p_t_s_6_1_0 + q_p_t_s_0_2_0 - q_p_t_s_5_2_0
       - q_p_t_s_6_2_0 + q_p_t_s_0_3_0 - q_p_t_s_5_3_0 - q_p_t_s_6_3_0
       - q_p_t_s_5_4_0 - q_p_t_s_6_4_0 - i_0_4_0  = -583
 c6:   q_p_t_s_0_0_0 - q_p_t_s_5_0_0 - q_p_t_s_6_0_0 + q_p_t_s_0_1_0
       - q_p_t_s_5_1_0 - q_p_t_s_6_1_0 + q_p_t_s_0_2_0 - q_p_t_s_5_2_0
       - q_p_t_s_6_2_0 + q_p_t_s_0_3_0 - q_p_t_s_5_3_0 - q_p_t_s_6_3_0
       + q_p_t_s_0_4_0 - q_p_t_s_5_4_0 - q_p_t_s_6_4_0 - q_p_t_s_5_5_0
       - q_p_t_s_6_5_0 - i_0_5_0  = -583
 c7:   - q_p_t_s_6_0_0 - q_p_t_s_7_0_0 - i_1_0_0  = -226
 c8:   q_p_t_s_1_0_0 - q_p_t_s_6_0_0 - q_p_t_s_7_0_0 - q_p_t_s_6_1_0
       - q_p_t_s_7_1_0 - i_1_1_0  = -226
 c9:   q_p_t_s_1_0_0 - q_p_t_s_6_0_0 - q_p_t_s_7_0_0 + q_p_t_s_1_1_0
       - q_p_t_s_6_1_0 - q_p_t_s_7_1_0 - q_p_t_s_6_2_0 - q_p_t_s_7_2_0
       - i_1_2_0  = -226
 c10:  q_p_t_s_1_0_0 - q_p_t_s_6_0_0 - q_p_t_s_7_0_0 + q_p_t_s_1_1_0
       - q_p_t_s_6_1_0 - q_p_t_s_7_1_0 + q_p_t_s_1_2_0 - q_p_t_s_6_2_0
       - q_p_t_s_7_2_0 - q_p_t_s_6_3_0 - q_p_t_s_7_3_0 - i_1_3_0  = -226
 c11:  q_p_t_s_1_0_0 - q_p_t_s_6_0_0 - q_p_t_s_7_0_0 + q_p_t_s_1_1_0
       - q_p_t_s_6_1_0 - q_p_t_s_7_1_0 + q_p_t_s_1_2_0 - q_p_t_s_6_2_0
       - q_p_t_s_7_2_0 + q_p_t_s_1_3_0 - q_p_t_s_6_3_0 - q_p_t_s_7_3_0
       - q_p_t_s_6_4_0 - q_p_t_s_7_4_0 - i_1_4_0  = -226
 c12:  q_p_t_s_1_0_0 - q_p_t_s_6_0_0 - q_p_t_s_7_0_0 + q_p_t_s_1_1_0
       - q_p_t_s_6_1_0 - q_p_t_s_7_1_0 + q_p_t_s_1_2_0 - q_p_t_s_6_2_0
       - q_p_t_s_7_2_0 + q_p_t_s_1_3_0 - q_p_t_s_6_3_0 - q_p_t_s_7_3_0
       + q_p_t_s_1_4_0 - q_p_t_s_6_4_0 - q_p_t_s_7_4_0 - q_p_t_s_6_5_0
       - q_p_t_s_7_5_0 - i_1_5_0  = -226
 c13:  - q_p_t_s_0_0_0 - q_p_t_s_1_0_0 - i_2_0_0  = -725
 c14:  - q_p_t_s_0_0_0 - q_p_t_s_1_0_0 + q_p_t_s_2_0_0 - q_p_t_s_0_1_0
       - q_p_t_s_1_1_0 - i_2_1_0  = -725
 c15:  - q_p_t_s_0_0_0 - q_p_t_s_1_0_0 + q_p_t_s_2_0_0 - q_p_t_s_0_1_0
       - q_p_t_s_1_1_0 + q_p_t_s_2_1_0 - q_p_t_s_0_2_0 - q_p_t_s_1_2_0
       - i_2_2_0  = -725
 c16:  - q_p_t_s_0_0_0 - q_p_t_s_1_0_0 + q_p_t_s_2_0_0 - q_p_t_s_0_1_0
       - q_p_t_s_1_1_0 + q_p_t_s_2_1_0 - q_p_t_s_0_2_0 - q_p_t_s_1_2_0
       + q_p_t_s_2_2_0 - q_p_t_s_0_3_0 - q_p_t_s_1_3_0 - i_2_3_0  = -725
 c17:  - q_p_t_s_0_0_0 - q_p_t_s_1_0_0 + q_p_t_s_2_0_0 - q_p_t_s_0_1_0
       - q_p_t_s_1_1_0 + q_p_t_s_2_1_0 - q_p_t_s_0_2_0 - q_p_t_s_1_2_0
       + q_p_t_s_2_2_0 - q_p_t_s_0_3_0 - q_p_t_s_1_3_0 + q_p_t_s_2_3_0
       - q_p_t_s_0_4_0 - q_p_t_s_1_4_0 - i_2_4_0  = -725
 c18:  - q_p_t_s_0_0_0 - q_p_t_s_1_0_0 + q_p_t_s_2_0_0 - q_p_t_s_0_1_0
       - q_p_t_s_1_1_0 + q_p_t_s_2_1_0 - q_p_t_s_0_2_0 - q_p_t_s_1_2_0
       + q_p_t_s_2_2_0 - q_p_t_s_0_3_0 - q_p_t_s_1_3_0 + q_p_t_s_2_3_0
       - q_p_t_s_0_4_0 - q_p_t_s_1_4_0 + q_p_t_s_2_4_0 - q_p_t_s_0_5_0
       - q_p_t_s_1_5_0 - i_2_5_0  = -725
 c19:  - q_p_t_s_0_0_0 - q_p_t_s_1_0_0 - i_3_0_0  = -693
 c20:  - q_p_t_s_0_0_0 - q_p_t_s_1_0_0 + q_p_t_s_3_0_0 - q_p_t_s_0_1_0
       - q_p_t_s_1_1_0 - i_3_1_0  = -693
 c21:  - q_p_t_s_0_0_0 - q_p_t_s_1_0_0 + q_p_t_s_3_0_0 - q_p_t_s_0_1_0
       - q_p_t_s_1_1_0 + q_p_t_s_3_1_0 - q_p_t_s_0_2_0 - q_p_t_s_1_2_0
       - i_3_2_0  = -693
 c22:  - q_p_t_s_0_0_0 - q_p_t_s_1_0_0 + q_p_t_s_3_0_0 - q_p_t_s_0_1_0
       - q_p_t_s_1_1_0 + q_p_t_s_3_1_0 - q_p_t_s_0_2_0 - q_p_t_s_1_2_0
       + q_p_t_s_3_2_0 - q_p_t_s_0_3_0 - q_p_t_s_1_3_0 - i_3_3_0  = -693
 c23:  - q_p_t_s_0_0_0 - q_p_t_s_1_0_0 + q_p_t_s_3_0_0 - q_p_t_s_0_1_0
       - q_p_t_s_1_1_0 + q_p_t_s_3_1_0 - q_p_t_s_0_2_0 - q_p_t_s_1_2_0
       + q_p_t_s_3_2_0 - q_p_t_s_0_3_0 - q_p_t_s_1_3_0 + q_p_t_s_3_3_0
       - q_p_t_s_0_4_0 - q_p_t_s_1_4_0 - i_3_4_0  = -693
 c24:  - q_p_t_s_0_0_0 - q_p_t_s_1_0_0 + q_p_t_s_3_0_0 - q_p_t_s_0_1_0
       - q_p_t_s_1_1_0 + q_p_t_s_3_1_0 - q_p_t_s_0_2_0 - q_p_t_s_1_2_0
       + q_p_t_s_3_2_0 - q_p_t_s_0_3_0 - q_p_t_s_1_3_0 + q_p_t_s_3_3_0
       - q_p_t_s_0_4_0 - q_p_t_s_1_4_0 + q_p_t_s_3_4_0 - q_p_t_s_0_5_0
       - q_p_t_s_1_5_0 - i_3_5_0  = -693
 c25:  - q_p_t_s_0_0_0 - q_p_t_s_1_0_0 - i_4_0_0  = -618
 c26:  - q_p_t_s_0_0_0 - q_p_t_s_1_0_0 + q_p_t_s_4_0_0 - q_p_t_s_0_1_0
       - q_p_t_s_1_1_0 - i_4_1_0  = -618
 c27:  - q_p_t_s_0_0_0 - q_p_t_s_1_0_0 + q_p_t_s_4_0_0 - q_p_t_s_0_1_0
       - q_p_t_s_1_1_0 + q_p_t_s_4_1_0 - q_p_t_s_0_2_0 - q_p_t_s_1_2_0
       - i_4_2_0  = -618
 c28:  - q_p_t_s_0_0_0 - q_p_t_s_1_0_0 + q_p_t_s_4_0_0 - q_p_t_s_0_1_0
       - q_p_t_s_1_1_0 + q_p_t_s_4_1_0 - q_p_t_s_0_2_0 - q_p_t_s_1_2_0
       + q_p_t_s_4_2_0 - q_p_t_s_0_3_0 - q_p_t_s_1_3_0 - i_4_3_0  = -618
 c29:  - q_p_t_s_0_0_0 - q_p_t_s_1_0_0 + q_p_t_s_4_0_0 - q_p_t_s_0_1_0
       - q_p_t_s_1_1_0 + q_p_t_s_4_1_0 - q_p_t_s_0_2_0 - q_p_t_s_1_2_0
       + q_p_t_s_4_2_0 - q_p_t_s_0_3_0 - q_p_t_s_1_3_0 + q_p_t_s_4_3_0
       - q_p_t_s_0_4_0 - q_p_t_s_1_4_0 - i_4_4_0  = -618
 c30:  - q_p_t_s_0_0_0 - q_p_t_s_1_0_0 + q_p_t_s_4_0_0 - q_p_t_s_0_1_0
       - q_p_t_s_1_1_0 + q_p_t_s_4_1_0 - q_p_t_s_0_2_0 - q_p_t_s_1_2_0
       + q_p_t_s_4_2_0 - q_p_t_s_0_3_0 - q_p_t_s_1_3_0 + q_p_t_s_4_3_0
       - q_p_t_s_0_4_0 - q_p_t_s_1_4_0 + q_p_t_s_4_4_0 - q_p_t_s_0_5_0
       - q_p_t_s_1_5_0 - i_4_5_0  = -618
 c31:  - i_5_0_0 + b_5_0_0  = -215
 c32:  q_p_t_s_5_0_0 - i_5_1_0 + b_5_1_0  = 83
 c33:  q_p_t_s_5_0_0 + q_p_t_s_5_1_0 - i_5_2_0 + b_5_2_0  = 406
 c34:  q_p_t_s_5_0_0 + q_p_t_s_5_1_0 + q_p_t_s_5_2_0 - i_5_3_0 + b_5_3_0  = 659
 c35:  q_p_t_s_5_0_0 + q_p_t_s_5_1_0 + q_p_t_s_5_2_0 + q_p_t_s_5_3_0 - i_5_4_0
       + b_5_4_0  = 912
 c36:  q_p_t_s_5_0_0 + q_p_t_s_5_1_0 + q_p_t_s_5_2_0 + q_p_t_s_5_3_0
       + q_p_t_s_5_4_0 - i_5_5_0 + b_5_5_0  = 1165
 c37:  - i_6_0_0 + b_6_0_0  = -9
 c38:  q_p_t_s_6_0_0 - i_6_1_0 + b_6_1_0  = 37
 c39:  q_p_t_s_6_0_0 + q_p_t_s_6_1_0 - i_6_2_0 + b_6_2_0  = 82
 c40:  q_p_t_s_6_0_0 + q_p_t_s_6_1_0 + q_p_t_s_6_2_0 - i_6_3_0 + b_6_3_0  = 127
 c41:  q_p_t_s_6_0_0 + q_p_t_s_6_1_0 + q_p_t_s_6_2_0 + q_p_t_s_6_3_0 - i_6_4_0
       + b_6_4_0  = 172
 c42:  q_p_t_s_6_0_0 + q_p_t_s_6_1_0 + q_p_t_s_6_2_0 + q_p_t_s_6_3_0
       + q_p_t_s_6_4_0 - i_6_5_0 + b_6_5_0  = 217
 c43:  - i_7_0_0 + b_7_0_0  = -27
 c44:  q_p_t_s_7_0_0 - i_7_1_0 + b_7_1_0  = 48
 c45:  q_p_t_s_7_0_0 + q_p_t_s_7_1_0 - i_7_2_0 + b_7_2_0  = 124
 c46:  q_p_t_s_7_0_0 + q_p_t_s_7_1_0 + q_p_t_s_7_2_0 - i_7_3_0 + b_7_3_0  = 199
 c47:  q_p_t_s_7_0_0 + q_p_t_s_7_1_0 + q_p_t_s_7_2_0 + q_p_t_s_7_3_0 - i_7_4_0
       + b_7_4_0  = 274
 c48:  q_p_t_s_7_0_0 + q_p_t_s_7_1_0 + q_p_t_s_7_2_0 + q_p_t_s_7_3_0
       + q_p_t_s_7_4_0 - i_7_5_0 + b_7_5_0  = 349
 c49:  - q_p_t_s_0_0_0 + 536.4 p_0_0_0 >= 0
 c50:  - q_p_t_s_1_0_0 + 216 p_1_0_0 >= 0
 c51:  - q_p_t_s_2_0_0 + 752.4 p_2_0_0 >= 0
 c52:  - q_p_t_s_3_0_0 + 752.4 p_3_0_0 >= 0
 c53:  - q_p_t_s_4_0_0 + 752.4 p_4_0_0 >= 0
 c54:  - q_p_t_s_5_0_0 + 455.4 p_5_0_0 >= 0
 c55:  - q_p_t_s_6_0_0 + 81 p_6_0_0 >= 0
 c56:  - q_p_t_s_7_0_0 + 135 p_7_0_0 >= 0
 c57:  - q_p_t_s_0_1_0 + 536.4 p_0_1_0 >= 0
 c58:  - q_p_t_s_1_1_0 + 216 p_1_1_0 >= 0
 c59:  - q_p_t_s_2_1_0 + 752.4 p_2_1_0 >= 0
 c60:  - q_p_t_s_3_1_0 + 752.4 p_3_1_0 >= 0
 c61:  - q_p_t_s_4_1_0 + 752.4 p_4_1_0 >= 0
 c62:  - q_p_t_s_5_1_0 + 455.4 p_5_1_0 >= 0
 c63:  - q_p_t_s_6_1_0 + 81 p_6_1_0 >= 0
 c64:  - q_p_t_s_7_1_0 + 135 p_7_1_0 >= 0
 c65:  - q_p_t_s_0_2_0 + 536.4 p_0_2_0 >= 0
 c66:  - q_p_t_s_1_2_0 + 216 p_1_2_0 >= 0
 c67:  - q_p_t_s_2_2_0 + 752.4 p_2_2_0 >= 0
 c68:  - q_p_t_s_3_2_0 + 752.4 p_3_2_0 >= 0
 c69:  - q_p_t_s_4_2_0 + 752.4 p_4_2_0 >= 0
 c70:  - q_p_t_s_5_2_0 + 455.4 p_5_2_0 >= 0
 c71:  - q_p_t_s_6_2_0 + 81 p_6_2_0 >= 0
 c72:  - q_p_t_s_7_2_0 + 135 p_7_2_0 >= 0
 c73:  - q_p_t_s_0_3_0 + 536.4 p_0_3_0 >= 0
 c74:  - q_p_t_s_1_3_0 + 216 p_1_3_0 >= 0
 c75:  - q_p_t_s_2_3_0 + 752.4 p_2_3_0 >= 0
 c76:  - q_p_t_s_3_3_0 + 752.4 p_3_3_0 >= 0
 c77:  - q_p_t_s_4_3_0 + 752.4 p_4_3_0 >= 0
 c78:  - q_p_t_s_5_3_0 + 455.4 p_5_3_0 >= 0
 c79:  - q_p_t_s_6_3_0 + 81 p_6_3_0 >= 0
 c80:  - q_p_t_s_7_3_0 + 135 p_7_3_0 >= 0
 c81:  - q_p_t_s_0_4_0 + 536.4 p_0_4_0 >= 0
 c82:  - q_p_t_s_1_4_0 + 216 p_1_4_0 >= 0
 c83:  - q_p_t_s_2_4_0 + 752.4 p_2_4_0 >= 0
 c84:  - q_p_t_s_3_4_0 + 752.4 p_3_4_0 >= 0
 c85:  - q_p_t_s_4_4_0 + 752.4 p_4_4_0 >= 0
 c86:  - q_p_t_s_5_4_0 + 455.4 p_5_4_0 >= 0
 c87:  - q_p_t_s_6_4_0 + 81 p_6_4_0 >= 0
 c88:  - q_p_t_s_7_4_0 + 135 p_7_4_0 >= 0
 c89:  - q_p_t_s_0_5_0 + 536.4 p_0_5_0 >= 0
 c90:  - q_p_t_s_1_5_0 + 216 p_1_5_0 >= 0
 c91:  - q_p_t_s_2_5_0 + 752.4 p_2_5_0 >= 0
 c92:  - q_p_t_s_3_5_0 + 752.4 p_3_5_0 >= 0
 c93:  - q_p_t_s_4_5_0 + 752.4 p_4_5_0 >= 0
 c94:  - q_p_t_s_5_5_0 + 455.4 p_5_5_0 >= 0
 c95:  - q_p_t_s_6_5_0 + 81 p_6_5_0 >= 0
 c96:  - q_p_t_s_7_5_0 + 135 p_7_5_0 >= 0
 c97:  2 q_p_t_s_0_0_0 <= 1072.8
 c98:  2 q_p_t_s_0_1_0 <= 1072.8
 c99:  2 q_p_t_s_0_2_0 <= 1072.8
 c100: 2 q_p_t_s_0_3_0 <= 1072.8
 c101: 2 q_p_t_s_0_4_0 <= 1072.8
 c102: 2 q_p_t_s_0_5_0 <= 1072.8
 c103: 5 q_p_t_s_1_0_0 <= 1080
 c104: 5 q_p_t_s_1_1_0 <= 1080
 c105: 5 q_p_t_s_1_2_0 <= 1080
 c106: 5 q_p_t_s_1_3_0 <= 1080
 c107: 5 q_p_t_s_1_4_0 <= 1080
 c108: 5 q_p_t_s_1_5_0 <= 1080
 c109: 4 q_p_t_s_2_0_0 <= 3009.6
 c110: 4 q_p_t_s_2_1_0 <= 3009.6
 c111: 4 q_p_t_s_2_2_0 <= 3009.6
 c112: 4 q_p_t_s_2_3_0 <= 3009.6
 c113: 4 q_p_t_s_2_4_0 <= 3009.6
 c114: 4 q_p_t_s_2_5_0 <= 3009.6
 c115: 5 q_p_t_s_3_0_0 <= 3762
 c116: 5 q_p_t_s_3_1_0 <= 3762
 c117: 5 q_p_t_s_3_2_0 <= 3762
 c118: 5 q_p_t_s_3_3_0 <= 3762
 c119: 5 q_p_t_s_3_4_0 <= 3762
 c120: 5 q_p_t_s_3_5_0 <= 3762
 c121: 5 q_p_t_s_4_0_0 <= 3762
 c122: 5 q_p_t_s_4_1_0 <= 3762
 c123: 5 q_p_t_s_4_2_0 <= 3762
 c124: 5 q_p_t_s_4_3_0 <= 3762
 c125: 5 q_p_t_s_4_4_0 <= 3762
 c126: 5 q_p_t_s_4_5_0 <= 3762
 c127: 2 q_p_t_s_5_0_0 <= 910.8
 c128: 2 q_p_t_s_5_1_0 <= 910.8
 c129: 2 q_p_t_s_5_2_0 <= 910.8
 c130: 2 q_p_t_s_5_3_0 <= 910.8
 c131: 2 q_p_t_s_5_4_0 <= 910.8
 c132: 2 q_p_t_s_5_5_0 <= 910.8
 c133: q_p_t_s_6_0_0 <= 81
 c134: q_p_t_s_6_1_0 <= 81
 c135: q_p_t_s_6_2_0 <= 81
 c136: q_p_t_s_6_3_0 <= 81
 c137: q_p_t_s_6_4_0 <= 81
 c138: q_p_t_s_6_5_0 <= 81
 c139: 4 q_p_t_s_7_0_0 <= 540
 c140: 4 q_p_t_s_7_1_0 <= 540
 c141: 4 q_p_t_s_7_2_0 <= 540
 c142: 4 q_p_t_s_7_3_0 <= 540
 c143: 4 q_p_t_s_7_4_0 <= 540
 c144: 4 q_p_t_s_7_5_0 <= 540
 c145: q_p_t_s_0_0_0  = 0
 c146: q_p_t_s_0_1_0  = 479.4
 c147: q_p_t_s_0_2_0  = 0
 c148: q_p_t_s_0_3_0  = 323.6
 c149: q_p_t_s_0_4_0  = 0
 c150: q_p_t_s_0_5_0  = 0
 c151: q_p_t_s_1_0_0  = 0
 c152: q_p_t_s_1_1_0  = 138.6
 c153: q_p_t_s_1_2_0  = 0
 c154: q_p_t_s_1_3_0  = 195.4
 c155: q_p_t_s_1_4_0  = 0
 c156: q_p_t_s_1_5_0  = 0
 c157: q_p_t_s_2_0_0  = 0
 c158: q_p_t_s_2_1_0  = 0
 c159: q_p_t_s_2_2_0  = 412
 c160: q_p_t_s_2_3_0  = 0
 c161: q_p_t_s_2_4_0  = 0
 c162: q_p_t_s_2_5_0  = 0
 c163: q_p_t_s_3_0_0  = 0
 c164: q_p_t_s_3_1_0  = 0
 c165: q_p_t_s_3_2_0  = 444
 c166: q_p_t_s_3_3_0  = 0
 c167: q_p_t_s_3_4_0  = 0
 c168: q_p_t_s_3_5_0  = 0
 c169: q_p_t_s_4_0_0  = 0
 c170: q_p_t_s_4_1_0  = 0
 c171: q_p_t_s_4_2_0  = 519
 c172: q_p_t_s_4_3_0  = 0
 c173: q_p_t_s_4_4_0  = 0
 c174: q_p_t_s_4_5_0  = 0
 c175: q_p_t_s_5_0_0  = 455.4
 c176: q_p_t_s_5_1_0  = 0
 c177: q_p_t_s_5_2_0  = 455.4
 c178: q_p_t_s_5_3_0  = 0
 c179: q_p_t_s_5_4_0  = 263.2
 c180: q_p_t_s_5_5_0  = 0
 c181: q_p_t_s_6_0_0  = 81
 c182: q_p_t_s_6_1_0  = 0
 c183: q_p_t_s_6_2_0  = 70.6
 c184: q_p_t_s_6_3_0  = 0
 c185: q_p_t_s_6_4_0  = 60.4
 c186: q_p_t_s_6_5_0  = 0
 c187: q_p_t_s_7_0_0  = 135
 c188: q_p_t_s_7_1_0  = 0
 c189: q_p_t_s_7_2_0  = 78
 c190: q_p_t_s_7_3_0  = 0
 c191: q_p_t_s_7_4_0  = 135
 c192: q_p_t_s_7_5_0  = 0
 c193: p_0_0_0  = 0
 c194: p_0_1_0  = 1
 c195: p_0_2_0  = 0
 c196: p_0_3_0  = 1
 c197: p_0_4_0  = 0
 c198: p_0_5_0  = 0
 c199: p_1_0_0  = 0
 c200: p_1_1_0  = 1
 c201: p_1_2_0  = 0
 c202: p_1_3_0  = 1
 c203: p_1_4_0  = 0
 c204: p_1_5_0  = 0
 c205: p_2_0_0  = 0
 c206: p_2_1_0  = 0
 c207: p_2_2_0  = 1
 c208: p_2_3_0  = 0
 c209: p_2_4_0  = 0
 c210: p_2_5_0  = 0
 c211: p_3_0_0  = 0
 c212: p_3_1_0  = 0
 c213: p_3_2_0  = 1
 c214: p_3_3_0  = 0
 c215: p_3_4_0  = 0
 c216: p_3_5_0  = 0
 c217: p_4_0_0  = 0
 c218: p_4_1_0  = 0
 c219: p_4_2_0  = 1
 c220: p_4_3_0  = 0
 c221: p_4_4_0  = 0
 c222: p_4_5_0  = 0
 c223: p_5_0_0  = 1
 c224: p_5_1_0  = 0
 c225: p_5_2_0  = 1
 c226: p_5_3_0  = 0
 c227: p_5_4_0  = 1
 c228: p_5_5_0  = 0
 c229: p_6_0_0  = 1
 c230: p_6_1_0  = 0
 c231: p_6_2_0  = 1
 c232: p_6_3_0  = 0
 c233: p_6_4_0  = 1
 c234: p_6_5_0  = 0
 c235: p_7_0_0  = 1
 c236: p_7_1_0  = 0
 c237: p_7_2_0  = 1
 c238: p_7_3_0  = 0
 c239: p_7_4_0  = 1
 c240: p_7_5_0  = 0
Bounds
 0 <= p_0_0_0 <= 1
 0 <= p_1_0_0 <= 1
 0 <= p_2_0_0 <= 1
 0 <= p_3_0_0 <= 1
 0 <= p_4_0_0 <= 1
 0 <= p_5_0_0 <= 1
 0 <= p_6_0_0 <= 1
 0 <= p_7_0_0 <= 1
 0 <= p_0_1_0 <= 1
 0 <= p_1_1_0 <= 1
 0 <= p_2_1_0 <= 1
 0 <= p_3_1_0 <= 1
 0 <= p_4_1_0 <= 1
 0 <= p_5_1_0 <= 1
 0 <= p_6_1_0 <= 1
 0 <= p_7_1_0 <= 1
 0 <= p_0_2_0 <= 1
 0 <= p_1_2_0 <= 1
 0 <= p_2_2_0 <= 1
 0 <= p_3_2_0 <= 1
 0 <= p_4_2_0 <= 1
 0 <= p_5_2_0 <= 1
 0 <= p_6_2_0 <= 1
 0 <= p_7_2_0 <= 1
 0 <= p_0_3_0 <= 1
 0 <= p_1_3_0 <= 1
 0 <= p_2_3_0 <= 1
 0 <= p_3_3_0 <= 1
 0 <= p_4_3_0 <= 1
 0 <= p_5_3_0 <= 1
 0 <= p_6_3_0 <= 1
 0 <= p_7_3_0 <= 1
 0 <= p_0_4_0 <= 1
 0 <= p_1_4_0 <= 1
 0 <= p_2_4_0 <= 1
 0 <= p_3_4_0 <= 1
 0 <= p_4_4_0 <= 1
 0 <= p_5_4_0 <= 1
 0 <= p_6_4_0 <= 1
 0 <= p_7_4_0 <= 1
 0 <= p_0_5_0 <= 1
 0 <= p_1_5_0 <= 1
 0 <= p_2_5_0 <= 1
 0 <= p_3_5_0 <= 1
 0 <= p_4_5_0 <= 1
 0 <= p_5_5_0 <= 1
 0 <= p_6_5_0 <= 1
 0 <= p_7_5_0 <= 1
Binaries
 p_0_0_0  p_1_0_0  p_2_0_0  p_3_0_0  p_4_0_0  p_5_0_0  p_6_0_0  p_7_0_0 
 p_0_1_0  p_1_1_0  p_2_1_0  p_3_1_0  p_4_1_0  p_5_1_0  p_6_1_0  p_7_1_0 
 p_0_2_0  p_1_2_0  p_2_2_0  p_3_2_0  p_4_2_0  p_5_2_0  p_6_2_0  p_7_2_0 
 p_0_3_0  p_1_3_0  p_2_3_0  p_3_3_0  p_4_3_0  p_5_3_0  p_6_3_0  p_7_3_0 
 p_0_4_0  p_1_4_0  p_2_4_0  p_3_4_0  p_4_4_0  p_5_4_0  p_6_4_0  p_7_4_0 
 p_0_5_0  p_1_5_0  p_2_5_0  p_3_5_0  p_4_5_0  p_5_5_0  p_6_5_0  p_7_5_0 
End
